15
-1 609 595 358 521 601 278 551 485 578 263 454 490 473 244 
609 -1 777 281 739 749 413 649 808 901 695 172 759 473 478 
595 777 -1 547 73 41 446 132 171 186 352 630 119 303 412 
358 281 547 -1 495 528 132 435 544 641 413 109 504 268 197 
521 739 73 495 -1 92 385 128 121 175 279 584 56 271 346 
601 749 41 528 92 -1 434 99 204 227 368 606 146 275 405 
278 413 446 132 385 434 -1 351 419 518 281 241 385 216 65 
551 649 132 435 128 99 351 -1 247 301 348 508 179 176 333 
485 808 171 544 121 204 419 247 -1 100 222 643 67 362 365 
578 901 186 641 175 227 518 301 100 -1 314 739 141 443 466 
263 695 352 413 279 368 281 348 222 314 -1 523 237 353 216 
454 172 630 109 584 606 241 508 643 739 523 -1 599 332 306 
490 759 119 504 56 146 385 179 67 141 237 599 -1 303 338 
473 473 303 268 271 275 216 176 362 443 353 332 303 -1 229 
244 478 412 197 346 405 65 333 365 466 216 306 338 229 -1 
